NAME : A-n10-k3
CAPACITY : 660
NODE_COORD_SECTION
1   97   403
2   53   150
3   438   236
4   446   132
5   440   202
6   379   361
7   405   157
8   494   76
9   493   364
10   469   348
DEMAND_SECTION
1   0
2   24
3   32
4   63
5   96
6   39
7   46
8   23
9   69
10   98
DEPOT_SECTION
    1
    -1
EOF